NAME: random-41-14669
TYPE: TSP
COMMENT: size=41 seed=14669
DIMENSION: 84
EDGE_WEIGHT_TYPE: EUC_2D
NODE_COORD_SECTION
+0 883 518
-0 883 518
+1 865 451
-1 506 556
+2 779 304
-2 985 892
+3 865 69
-3 55 317
+4 48 237
-4 232 368
+5 479 183
-5 888 777
+6 76 514
-6 428 958
+7 910 720
-7 502 134
+8 225 311
-8 231 819
+9 791 216
-9 912 976
+10 842 357
-10 717 434
+11 86 703
-11 77 760
+12 786 386
-12 448 828
+13 563 832
-13 202 836
+14 964 75
-14 531 571
+15 328 754
-15 550 743
+16 838 495
-16 725 442
+17 938 770
-17 794 91
+18 407 309
-18 495 202
+19 606 686
-19 335 755
+20 414 700
-20 697 763
+21 681 57
-21 292 549
+22 52 364
-22 32 316
+23 442 795
-23 951 31
+24 536 885
-24 372 165
+25 162 732
-25 888 27
+26 315 407
-26 223 445
+27 853 912
-27 363 67
+28 60 373
-28 60 265
+29 77 291
-29 444 917
+30 842 164
-30 918 533
+31 337 28
-31 171 777
+32 523 499
-32 81 630
+33 223 870
-33 750 760
+34 445 220
-34 288 28
+35 278 881
-35 496 202
+36 776 98
-36 400 209
+37 509 612
-37 786 156
+38 899 701
-38 825 377
+39 215 649
-39 99 634
+40 442 278
-40 527 423
+41 70 664
-41 548 935
PRECEDENCE_SECTION
+0 -0
+1 -1
+2 -2
+3 -3
+4 -4
+5 -5
+6 -6
+7 -7
+8 -8
+9 -9
+10 -10
+11 -11
+12 -12
+13 -13
+14 -14
+15 -15
+16 -16
+17 -17
+18 -18
+19 -19
+20 -20
+21 -21
+22 -22
+23 -23
+24 -24
+25 -25
+26 -26
+27 -27
+28 -28
+29 -29
+30 -30
+31 -31
+32 -32
+33 -33
+34 -34
+35 -35
+36 -36
+37 -37
+38 -38
+39 -39
+40 -40
+41 -41
EOF
